nServices=10;
nDrivers=15;
nBuses=15;
maxBuses=12;
startingTime=[135 63 96 167 164 152 183 109 185 34];
durationTime=[20 27 24 10 23 30 22 16 30 19];
durationDist=[31 23 32 20 20 35 31 56 58 55];
passengers=[17 2 4 15 25 9 8 8 5 17];
capacity=[14 14 27 23 16 18 30 12 10 27 14 19 16 27 27];
costTime=[8 7 10 9 10 8 8 8 7 6 8 8 10 6 6];
costDist=[3 2 5 5 5 2 2 2 3 4 5 6 4 2 2];
maxTime=[57 31 55 47 56 41 38 33 47 37 23 44 30 58 40];
costBM=[7 6 6 5 8 8 8 8 7 6 5 7 8 7 5];
costEM=[8 9 10 8 10 9 10 8 11 8 10 10 12 12 12];
BM=[18 10 20 15 17 16 19 13 11 20 14 16 14 10 17];
